c preprocessed version of myciel4, 23 vertices, 71 edges
p td 23 71
0 1
0 3
0 6
0 8
0 12
0 14
0 17
0 19
1 2
1 5
1 7
1 11
1 13
1 16
1 18
2 4
2 6
2 9
2 12
2 15
2 17
2 20
3 4
3 5
3 9
3 11
3 15
3 16
3 20
4 7
4 8
4 13
4 14
4 18
4 19
5 10
5 12
5 14
5 21
6 10
6 11
6 13
6 21
7 10
7 12
7 15
7 21
8 10
8 11
8 15
8 21
9 10
9 13
9 14
9 21
10 16
10 17
10 18
10 19
10 20
11 22
12 22
13 22
14 22
15 22
16 22
17 22
18 22
19 22
20 22
21 22
